Optimal - objective value 583.00000000
      7 x_0_7                    1                       0
     11 x_1_3                    1                       0
     17 x_2_1                    1                       0
     26 x_3_2                    1                       0
     32 x_4_0                    1                       0
     46 x_5_6                    1                       0
     52 x_6_4                    1                       0
     61 x_7_5                    1                       0
    165 y_0_7_1_3                1                      36
    169 y_0_7_4_0                1                      28
    219 y_1_3_2_1                1                      73
    228 y_1_3_6_4                1                      16
    303 y_2_1_3_2                1                      88
    309 y_2_1_4_0                1                      98
    428 y_3_2_4_0                1                      36
    438 y_3_2_6_4                1                      75
    558 y_5_6_6_4                1                      73
    600 y_6_4_7_5                1                      60
